     Program PWSCF v.7.0 starts on 15Jun2022 at  7:55:54

     K-points division:     npool     =       5
     R & G space division:  proc/nbgrp/npool/nimage =      36

     Reading input from TaS2_cdw.scf

     Current dimensions of program PWSCF are:
     Max number of different atomic species (ntypx) = 10
     Max number of k-points (npk) =  40000
     Max angular momentum in pseudopotentials (lmaxx) =  4

     Using Slab Decomposition

     bravais-lattice index     =            4
     lattice parameter (alat)  =      19.2005  a.u.
     unit-cell volume          =    9049.9364 (a.u.)^3
     number of atoms/cell      =           27
     number of atomic types    =            2
     number of electrons       =       153.00
     number of Kohn-Sham states=           92
     kinetic-energy cutoff     =     100.0000  Ry
     charge density cutoff     =     400.0000  Ry
     scf convergence threshold =      1.0E-15
     mixing beta               =       0.7000
     number of iterations used =            8  plain     mixing
     Exchange-correlation= SLA-PW-PBX-PBC
                           (   1   4   3   4   0   0   0)

     celldm(1)=  19.200493  celldm(2)=   0.000000  celldm(3)=   1.476311
     celldm(4)=   0.000000  celldm(5)=   0.000000  celldm(6)=   0.000000

     crystal axes: (cart. coord. in units of alat)
               a(1) = (   1.000000   0.000000   0.000000 )
               a(2) = (  -0.500000   0.866025   0.000000 )
               a(3) = (   0.000000   0.000000   1.476311 )

     reciprocal axes: (cart. coord. in units 2 pi/alat)
               b(1) = (  1.000000  0.577350  0.000000 )
               b(2) = (  0.000000  1.154701  0.000000 )
               b(3) = (  0.000000  0.000000  0.677364 )

     PseudoPot. # 1 for Ta read from file:
     ./pseudos/Ta.pbe-hgh.UPF
     MD5 check sum: 129c51a9a4223465c43ca8d238d17e53
     Pseudo is Norm-conserving, Zval =  5.0
     Generated in analytical, separable form
     Using radial grid of 1273 points,  6 beta functions with:
                l(1) =   0
                l(2) =   0
                l(3) =   1
                l(4) =   1
                l(5) =   2
                l(6) =   2

     PseudoPot. # 2 for S  read from file:
     ./pseudos/S.pbe-hgh.UPF
     MD5 check sum: 3a21e384b95a7cc84d045d3bcc0c4ba8
     Pseudo is Norm-conserving, Zval =  6.0
     Generated in analytical, separable form
     Using radial grid of 1151 points,  3 beta functions with:
                l(1) =   0
                l(2) =   0
                l(3) =   1

     atomic species   valence    mass     pseudopotential
        Ta             5.00   180.94788     Ta( 1.00)
        S              6.00    32.06500     S ( 1.00)

     12 Sym. Ops. (no inversion) found

   Cartesian axes

     site n.     atom                  positions (alat units)
         1           Ta  tau(   1) = (   0.5000000   0.4780447   0.7381553  )
         2           Ta  tau(   2) = (   0.3360011   0.1939903   0.7381553  )
         3           Ta  tau(   3) = (   0.6639989   0.1939903   0.7381553  )
         4           Ta  tau(   4) = (   0.0000000   0.7760728   0.7381553  )
         5           Ta  tau(   5) = (  -0.1720988   0.4779890   0.7381553  )
         6           Ta  tau(   6) = (   0.1720988   0.4779890   0.7381553  )
         7           Ta  tau(   7) = (   0.3390981   0.7731287   0.7381553  )
         8           Ta  tau(   8) = (  -0.3390981   0.7731287   0.7381553  )
         9           Ta  tau(   9) = (   0.0000000   0.1857935   0.7381553  )
        10           S   tau(  10) = (   0.1664686   0.6734609   0.5852802  )
        11           S   tau(  11) = (   0.1664686   0.6734609   0.8910304  )
        12           S   tau(  12) = (  -0.1664686   0.6734609   0.5852802  )
        13           S   tau(  13) = (  -0.1664686   0.6734609   0.8910304  )
        14           S   tau(  14) = (   0.0000000   0.3851289   0.5852802  )
        15           S   tau(  15) = (   0.0000000   0.3851289   0.8910304  )
        16           S   tau(  16) = (   0.6658078   0.3844043   0.5792057  )
        17           S   tau(  17) = (   0.6658078   0.3844043   0.8971049  )
        18           S   tau(  18) = (   0.3341922   0.3844043   0.5792057  )
        19           S   tau(  19) = (   0.3341922   0.3844043   0.8971049  )
        20           S   tau(  20) = (   0.5000000   0.0972168   0.5792057  )
        21           S   tau(  21) = (   0.5000000   0.0972168   0.8971049  )
        22           S   tau(  22) = (   0.5000000   0.6708099   0.5812241  )
        23           S   tau(  23) = (   0.5000000   0.6708099   0.8950865  )
        24           S   tau(  24) = (   0.1690616   0.0976077   0.5812241  )
        25           S   tau(  25) = (   0.1690616   0.0976077   0.8950865  )
        26           S   tau(  26) = (   0.8309384   0.0976077   0.5812241  )
        27           S   tau(  27) = (   0.8309384   0.0976077   0.8950865  )

     number of k points=    19  Fermi-Dirac smearing, width (Ry)=  0.0050
                       cart. coord. in units 2pi/alat
        k(    1) = (   0.0000000   0.0000000   0.0000000), wk =   0.0138889
        k(    2) = (   0.0000000   0.0962250   0.0000000), wk =   0.0833333
        k(    3) = (   0.0000000   0.1924501   0.0000000), wk =   0.0833333
        k(    4) = (   0.0000000   0.2886751   0.0000000), wk =   0.0833333
        k(    5) = (   0.0000000   0.3849002   0.0000000), wk =   0.0833333
        k(    6) = (   0.0000000   0.4811252   0.0000000), wk =   0.0833333
        k(    7) = (   0.0000000  -0.5773503   0.0000000), wk =   0.0416667
        k(    8) = (   0.0833333   0.1443376   0.0000000), wk =   0.0833333
        k(    9) = (   0.0833333   0.2405626   0.0000000), wk =   0.1666667
        k(   10) = (   0.0833333   0.3367877   0.0000000), wk =   0.1666667
        k(   11) = (   0.0833333   0.4330127   0.0000000), wk =   0.1666667
        k(   12) = (   0.0833333   0.5292377   0.0000000), wk =   0.1666667
        k(   13) = (   0.1666667   0.2886751   0.0000000), wk =   0.0833333
        k(   14) = (   0.1666667   0.3849002   0.0000000), wk =   0.1666667
        k(   15) = (   0.1666667   0.4811252   0.0000000), wk =   0.1666667
        k(   16) = (   0.1666667   0.5773503   0.0000000), wk =   0.0833333
        k(   17) = (   0.2500000   0.4330127   0.0000000), wk =   0.0833333
        k(   18) = (   0.2500000   0.5292377   0.0000000), wk =   0.1666667
        k(   19) = (   0.3333333   0.5773503   0.0000000), wk =   0.0277778

     Initial potential from superposition of free atoms

     starting charge     134.9924, renormalised to     153.0000

     negative rho (up, down):  4.640E-05 0.000E+00
     Starting wfcs are  243 randomized atomic wfcs

     Self-consistent Calculation

     iteration #  1     ecut=   100.00 Ry     beta= 0.70
     Davidson diagonalization with overlap
     ethr =  1.00E-02,  avg # of iterations =  2.0

     total energy              =    -454.41992341 Ry
     estimated scf accuracy    <       8.87375473 Ry

[...]

     iteration #  8     ecut=   100.00 Ry     beta= 0.70
     Davidson diagonalization with overlap
     c_bands:  3 eigenvalues not converged
     ethr =  3.57E-05,  avg # of iterations =  9.6

[...]

     negative rho (up, down):  3.567E-08 0.000E+00

[...]

     iteration # 11     ecut=   100.00 Ry     beta= 0.70
     Davidson diagonalization with overlap
     c_bands:  2 eigenvalues not converged
     ethr =  4.20E-07,  avg # of iterations =  8.1

[...]

     total energy              =    -459.78648190 Ry
     estimated scf accuracy    <          1.6E-14 Ry

     iteration # 30     ecut=   100.00 Ry     beta= 0.70
     Davidson diagonalization with overlap
     ethr =  1.00E-13,  avg # of iterations =  1.0

     End of self-consistent calculation

          k = 0.0000 0.0000 0.0000 (152785 PWs)   bands (ev):

   -14.4292 -13.3687 -13.3592 -13.3592 -13.3524 -13.3524 -13.3370 -13.0761
   -12.7039 -12.7039 -12.6985 -12.6985 -12.6703 -12.6184 -12.6184 -12.5946
   -12.3579 -12.3579  -5.9873  -5.5585  -5.5585  -5.5531  -5.4917  -5.4917
    -5.4832  -5.3356  -5.3191  -5.1361  -5.1361  -4.5942  -4.5701  -4.5701
    -4.5091  -4.5091  -4.5045  -4.4156  -4.3709  -4.3709  -4.3558  -4.2954
    -4.2457  -4.1987  -4.1987  -4.0190  -4.0190  -3.3375  -3.3375  -3.1979
    -3.1944  -3.1944  -3.0834  -3.0189  -3.0189  -2.9439  -2.9439  -2.4135
    -2.4135  -2.2358  -2.1761  -2.1567  -2.1567  -2.1198  -2.1198  -2.0707
    -2.0707  -2.0571  -1.9285  -1.8999  -1.8999  -1.8475  -1.8411  -1.8411
    -0.9618  -0.9236  -0.9236  -0.8745  -0.8538  -0.8538   0.0850   0.1105
     0.4130   1.6733   1.6733   2.3390   2.3390   2.4168   2.4619   2.4620
     2.4775   2.4775   2.5702   2.5746

[...]

          k = 0.3333 0.5774 0.0000 (152790 PWs)   bands (ev):

   -14.0060 -14.0040 -13.9963 -13.1209 -13.1144 -13.0976 -12.9497 -12.8904
   -12.8752 -12.8731 -12.8712 -12.8374 -12.5702 -12.5688 -12.5365 -12.4996
   -12.4289 -12.3853  -6.0124  -5.9912  -5.9641  -5.4776  -5.4386  -5.4019
    -5.3923  -5.3896  -5.3831  -4.9755  -4.9632  -4.9333  -4.6724  -4.6086
    -4.6024  -4.4386  -4.3943  -4.3625  -4.2774  -4.2673  -4.2360  -4.1580
    -4.1205  -4.0454  -3.5575  -3.5492  -3.4676  -3.4320  -3.4149  -3.3951
    -3.2929  -3.0996  -3.0583  -3.0432  -3.0021  -2.9948  -2.8335  -2.7302
    -2.6807  -2.6542  -2.6274  -2.5523  -2.5180  -2.4905  -2.4858  -2.2723
    -2.1866  -2.1031  -1.9152  -1.8978  -1.8521  -1.6288  -1.5870  -1.4897
    -0.7891  -0.7337  -0.6883  -0.5517  -0.4325  -0.4174  -0.1794  -0.1787
    -0.0949   2.0829   2.0959   2.1106   2.2749   2.3547   2.3834   2.3907
     2.4251   2.4674   2.4708   2.5043

     the Fermi energy is    -0.5551 ev

!    total energy              =    -459.78648190 Ry
     estimated scf accuracy    <          7.3E-16 Ry
     smearing contrib. (-TS)   =      -0.01757274 Ry
     internal energy E=F+TS    =    -459.76890916 Ry

     The total energy is F=E-TS. E is the sum of the following terms:
     one-electron contribution =   -1841.35425314 Ry
     hartree contribution      =     959.20608301 Ry
     xc contribution           =    -108.38158674 Ry
     ewald contribution        =     530.76084771 Ry

     convergence has been achieved in  30 iterations

     Writing all to output data dir /fastscratch/tsievers/TaS2_cdw_phonons_Gamma_180/TaS2_cdw_phonons.save/

     General routines

     Parallel routines

   This run was terminated on:   8: 1: 1  15Jun2022

   JOB DONE.

     Program PHONON v.7.0 starts on 15Jun2022 at  8: 1: 6

     K-points division:     npool     =       5
     R & G space division:  proc/nbgrp/npool/nimage =      36

     Reading input from TaS2.ph

     Reading xml data from directory:

     /fastscratch/tsievers/TaS2_cdw_phonons_Gamma_180/TaS2_cdw_phonons.save/

     IMPORTANT: XC functional enforced from input :
     Exchange-correlation= PBE
                           (   1   4   3   4   0   0   0)
     Any further DFT definition will be discarded
     Please, verify this is what you really want

     Using Slab Decomposition

     Reading collected, re-writing distributed wavefunctions

     Saving dvscf to file. Distribute only q points, not irreducible represetations.

     Calculation of q =    0.0000000   0.0000000   0.0000000

     TaS2

     bravais-lattice index     =            4
     lattice parameter (alat)  =      19.2005  a.u.
     unit-cell volume          =    9049.9364 (a.u.)^3
     number of atoms/cell      =           27
     number of atomic types    =            2
     kinetic-energy cut-off    =     100.0000  Ry
     charge density cut-off    =     400.0000  Ry
     convergence threshold     =      1.0E-21
     beta                      =       0.7000
     number of iterations used =            4
     Exchange-correlation= PBE
                           (   1   4   3   4   0   0   0)

     celldm(1)=   19.20049  celldm(2)=    0.00000  celldm(3)=    1.47631
     celldm(4)=    0.00000  celldm(5)=    0.00000  celldm(6)=    0.00000

     crystal axes: (cart. coord. in units of alat)
               a(1) = (  1.0000  0.0000  0.0000 )
               a(2) = ( -0.5000  0.8660  0.0000 )
               a(3) = (  0.0000  0.0000  1.4763 )

     reciprocal axes: (cart. coord. in units 2 pi/alat)
               b(1) = (  1.0000  0.5774  0.0000 )
               b(2) = (  0.0000  1.1547  0.0000 )
               b(3) = (  0.0000  0.0000  0.6774 )

     Atoms inside the unit cell:

     Cartesian axes

     site n.  atom      mass           positions (alat units)
        1     Ta 180.9479   tau(    1) = (    0.50000    0.47804    0.73816  )
        2     Ta 180.9479   tau(    2) = (    0.33600    0.19399    0.73816  )
        3     Ta 180.9479   tau(    3) = (    0.66400    0.19399    0.73816  )
        4     Ta 180.9479   tau(    4) = (    0.00000    0.77607    0.73816  )
        5     Ta 180.9479   tau(    5) = (   -0.17210    0.47799    0.73816  )
        6     Ta 180.9479   tau(    6) = (    0.17210    0.47799    0.73816  )
        7     Ta 180.9479   tau(    7) = (    0.33910    0.77313    0.73816  )
        8     Ta 180.9479   tau(    8) = (   -0.33910    0.77313    0.73816  )
        9     Ta 180.9479   tau(    9) = (    0.00000    0.18579    0.73816  )
       10     S   32.0650   tau(   10) = (    0.16647    0.67346    0.58528  )
       11     S   32.0650   tau(   11) = (    0.16647    0.67346    0.89103  )
       12     S   32.0650   tau(   12) = (   -0.16647    0.67346    0.58528  )
       13     S   32.0650   tau(   13) = (   -0.16647    0.67346    0.89103  )
       14     S   32.0650   tau(   14) = (    0.00000    0.38513    0.58528  )
       15     S   32.0650   tau(   15) = (    0.00000    0.38513    0.89103  )
       16     S   32.0650   tau(   16) = (    0.66581    0.38440    0.57921  )
       17     S   32.0650   tau(   17) = (    0.66581    0.38440    0.89710  )
       18     S   32.0650   tau(   18) = (    0.33419    0.38440    0.57921  )
       19     S   32.0650   tau(   19) = (    0.33419    0.38440    0.89710  )
       20     S   32.0650   tau(   20) = (    0.50000    0.09722    0.57921  )
       21     S   32.0650   tau(   21) = (    0.50000    0.09722    0.89710  )
       22     S   32.0650   tau(   22) = (    0.50000    0.67081    0.58122  )
       23     S   32.0650   tau(   23) = (    0.50000    0.67081    0.89509  )
       24     S   32.0650   tau(   24) = (    0.16906    0.09761    0.58122  )
       25     S   32.0650   tau(   25) = (    0.16906    0.09761    0.89509  )
       26     S   32.0650   tau(   26) = (    0.83094    0.09761    0.58122  )
       27     S   32.0650   tau(   27) = (    0.83094    0.09761    0.89509  )

     Computing dynamical matrix for
                    q = (   0.0000000   0.0000000   0.0000000 )

     13 Sym.Ops. (with q -> -q+G )

     G cutoff = 3735.2960  (  33957 G-vectors)     FFT grid: (125,125,192)

     number of k points=    19  Fermi-Dirac smearing, width (Ry)=  0.0050
                       cart. coord. in units 2pi/alat
        k(    1) = (   0.0000000   0.0000000   0.0000000), wk =   0.0138889
        k(    2) = (   0.0000000   0.0962250   0.0000000), wk =   0.0833333
        k(    3) = (   0.0000000   0.1924501   0.0000000), wk =   0.0833333
        k(    4) = (   0.0000000   0.2886751   0.0000000), wk =   0.0833333
        k(    5) = (   0.0000000   0.3849002   0.0000000), wk =   0.0833333
        k(    6) = (   0.0000000   0.4811252   0.0000000), wk =   0.0833333
        k(    7) = (   0.0000000  -0.5773503   0.0000000), wk =   0.0416667
        k(    8) = (   0.0833333   0.1443376   0.0000000), wk =   0.0833333
        k(    9) = (   0.0833333   0.2405626   0.0000000), wk =   0.1666667
        k(   10) = (   0.0833333   0.3367877   0.0000000), wk =   0.1666667
        k(   11) = (   0.0833333   0.4330127   0.0000000), wk =   0.1666667
        k(   12) = (   0.0833333   0.5292377   0.0000000), wk =   0.1666667
        k(   13) = (   0.1666667   0.2886751   0.0000000), wk =   0.0833333
        k(   14) = (   0.1666667   0.3849002   0.0000000), wk =   0.1666667
        k(   15) = (   0.1666667   0.4811252   0.0000000), wk =   0.1666667
        k(   16) = (   0.1666667   0.5773503   0.0000000), wk =   0.0833333
        k(   17) = (   0.2500000   0.4330127   0.0000000), wk =   0.0833333
        k(   18) = (   0.2500000   0.5292377   0.0000000), wk =   0.1666667
        k(   19) = (   0.3333333   0.5773503   0.0000000), wk =   0.0277778

     PseudoPot. # 1 for Ta read from file:
     ./pseudos/Ta.pbe-hgh.UPF
     MD5 check sum: 129c51a9a4223465c43ca8d238d17e53
     Pseudo is Norm-conserving, Zval =  5.0
     Generated in analytical, separable form
     Using radial grid of 1273 points,  6 beta functions with:
                l(1) =   0
                l(2) =   0
                l(3) =   1
                l(4) =   1
                l(5) =   2
                l(6) =   2

     PseudoPot. # 2 for S  read from file:
     ./pseudos/S.pbe-hgh.UPF
     MD5 check sum: 3a21e384b95a7cc84d045d3bcc0c4ba8
     Pseudo is Norm-conserving, Zval =  6.0
     Generated in analytical, separable form
     Using radial grid of 1151 points,  3 beta functions with:
                l(1) =   0
                l(2) =   0
                l(3) =   1

     Mode symmetry, D_3h (-62m) point group:

     Atomic displacements:
     There are   54 irreducible representations

     Representation     1      1 modes -  To be done

[...]

     Representation    54      2 modes -  To be done

     Alpha used in Ewald sum =   2.8000

     Representation #   1 mode #   1

[...]

     Pert. #  1: Fermi energy shift (Ry) =     3.5315E-02     1.0588E-22

      thresh= 1.000E-02 alpha_mix =  0.700 |ddv_scf|^2 =  5.361E-08

[...]

     Convergence has been achieved

[...]

     Representation #  16 modes #  16  17

[...]

     Representation #  42 mode #  57

[...]

     Representation #  54 modes #  80  81

     Self-consistent Calculation

[...]

     Pert. #  1: Fermi energy shift (Ry) =    -2.0868E-27    -7.4736E-45
     Pert. #  2: Fermi energy shift (Ry) =    -6.0585E-28    -3.7368E-45

      thresh= 6.981E-12 alpha_mix =  0.700 |ddv_scf|^2 =  3.341E-22

     End of self-consistent calculation

     Convergence has been achieved

     Number of q in the star =    1
     List of q in the star:
          1   0.000000000   0.000000000   0.000000000

     Diagonalizing the dynamical matrix

     q = (    0.000000000   0.000000000   0.000000000 )

     freq (    1) =      -0.003371 [THz] =      -0.112443 [cm-1]
     freq (    2) =      -0.003371 [THz] =      -0.112443 [cm-1]
     freq (    3) =       0.027606 [THz] =       0.920829 [cm-1]
     freq (    4) =       1.195328 [THz] =      39.871838 [cm-1]
     freq (    5) =       1.195328 [THz] =      39.871838 [cm-1]
     freq (    6) =       1.867960 [THz] =      62.308448 [cm-1]
     freq (    7) =       1.867960 [THz] =      62.308448 [cm-1]
     freq (    8) =       1.981594 [THz] =      66.098853 [cm-1]
     freq (    9) =       2.001147 [THz] =      66.751063 [cm-1]
     freq (   10) =       2.001147 [THz] =      66.751063 [cm-1]
     freq (   11) =       2.073892 [THz] =      69.177578 [cm-1]
     freq (   12) =       2.091229 [THz] =      69.755881 [cm-1]
     freq (   13) =       2.225368 [THz] =      74.230278 [cm-1]
     freq (   14) =       2.225368 [THz] =      74.230278 [cm-1]
     freq (   15) =       2.460623 [THz] =      82.077562 [cm-1]
     freq (   16) =       2.555603 [THz] =      85.245753 [cm-1]
     freq (   17) =       2.558657 [THz] =      85.347626 [cm-1]
     freq (   18) =       2.681614 [THz] =      89.449015 [cm-1]
     freq (   19) =       2.681614 [THz] =      89.449015 [cm-1]
     freq (   20) =       2.683385 [THz] =      89.508091 [cm-1]
     freq (   21) =       2.753321 [THz] =      91.840909 [cm-1]
     freq (   22) =       2.753321 [THz] =      91.840909 [cm-1]
     freq (   23) =       2.756636 [THz] =      91.951480 [cm-1]
     freq (   24) =       2.756636 [THz] =      91.951480 [cm-1]
     freq (   25) =       3.281098 [THz] =     109.445652 [cm-1]
     freq (   26) =       4.395283 [THz] =     146.610846 [cm-1]
     freq (   27) =       4.395283 [THz] =     146.610846 [cm-1]
     freq (   28) =       5.841960 [THz] =     194.866809 [cm-1]
     freq (   29) =       6.297566 [THz] =     210.064197 [cm-1]
     freq (   30) =       6.297566 [THz] =     210.064197 [cm-1]
     freq (   31) =       6.589541 [THz] =     219.803414 [cm-1]
     freq (   32) =       6.589541 [THz] =     219.803414 [cm-1]
     freq (   33) =       6.871648 [THz] =     229.213488 [cm-1]
     freq (   34) =       6.871648 [THz] =     229.213488 [cm-1]
     freq (   35) =       6.879727 [THz] =     229.482988 [cm-1]
     freq (   36) =       7.433982 [THz] =     247.970942 [cm-1]
     freq (   37) =       7.433982 [THz] =     247.970942 [cm-1]
     freq (   38) =       7.508733 [THz] =     250.464363 [cm-1]
     freq (   39) =       7.584073 [THz] =     252.977439 [cm-1]
     freq (   40) =       7.584073 [THz] =     252.977439 [cm-1]
     freq (   41) =       7.666365 [THz] =     255.722419 [cm-1]
     freq (   42) =       8.130739 [THz] =     271.212266 [cm-1]
     freq (   43) =       8.130739 [THz] =     271.212266 [cm-1]
     freq (   44) =       8.178712 [THz] =     272.812466 [cm-1]
     freq (   45) =       8.221799 [THz] =     274.249678 [cm-1]
     freq (   46) =       8.233737 [THz] =     274.647898 [cm-1]
     freq (   47) =       8.233737 [THz] =     274.647898 [cm-1]
     freq (   48) =       8.242627 [THz] =     274.944447 [cm-1]
     freq (   49) =       8.264959 [THz] =     275.689352 [cm-1]
     freq (   50) =       8.264959 [THz] =     275.689352 [cm-1]
     freq (   51) =       8.413615 [THz] =     280.647982 [cm-1]
     freq (   52) =       8.448947 [THz] =     281.826528 [cm-1]
     freq (   53) =       8.448947 [THz] =     281.826528 [cm-1]
     freq (   54) =       8.543846 [THz] =     284.992034 [cm-1]
     freq (   55) =       8.543846 [THz] =     284.992034 [cm-1]
     freq (   56) =       8.566499 [THz] =     285.747647 [cm-1]
     freq (   57) =       8.566499 [THz] =     285.747647 [cm-1]
     freq (   58) =       8.589258 [THz] =     286.506806 [cm-1]
     freq (   59) =       8.595412 [THz] =     286.712071 [cm-1]
     freq (   60) =       8.615062 [THz] =     287.367540 [cm-1]
[...]
     freq (   67) =       9.174038 [THz] =     306.012964 [cm-1]
     freq (   68) =       9.174038 [THz] =     306.012964 [cm-1]
     freq (   69) =       9.326664 [THz] =     311.104018 [cm-1]
     freq (   70) =       9.326664 [THz] =     311.104018 [cm-1]
     freq (   71) =       9.512734 [THz] =     317.310649 [cm-1]
     freq (   72) =      10.530432 [THz] =     351.257418 [cm-1]
     freq (   73) =      10.603127 [THz] =     353.682262 [cm-1]
     freq (   74) =      10.603127 [THz] =     353.682262 [cm-1]
     freq (   75) =      10.683094 [THz] =     356.349673 [cm-1]
     freq (   76) =      10.723541 [THz] =     357.698838 [cm-1]
     freq (   77) =      10.723541 [THz] =     357.698838 [cm-1]
     freq (   78) =      10.781247 [THz] =     359.623691 [cm-1]
     freq (   79) =      10.781247 [THz] =     359.623691 [cm-1]
     freq (   80) =      10.836428 [THz] =     361.464314 [cm-1]
     freq (   81) =      11.221602 [THz] =     374.312359 [cm-1]

     Mode symmetry, D_3h (-62m) point group:

     freq (   1-   2) =         -0.1  [cm-1]   --> E'              I+R
     freq (   3-   3) =          0.9  [cm-1]   --> A''2            I
     freq (   4-   5) =         39.9  [cm-1]   --> E'              I+R
     freq (   6-   7) =         62.3  [cm-1]   --> E''             R
     freq (   8-   8) =         66.1  [cm-1]   --> A''2            I
     freq (   9-  10) =         66.8  [cm-1]   --> E'              I+R
     freq (  11-  11) =         69.2  [cm-1]   --> A'_1            R
     freq (  12-  12) =         69.8  [cm-1]   --> A''2            I
     freq (  13-  14) =         74.2  [cm-1]   --> E''             R
     freq (  15-  15) =         82.1  [cm-1]   --> A'_2
     freq (  16-  16) =         85.2  [cm-1]   --> A'_2
     freq (  17-  17) =         85.3  [cm-1]   --> A'_1            R
     freq (  18-  19) =         89.4  [cm-1]   --> E'              I+R
     freq (  20-  20) =         89.5  [cm-1]   --> A'_2
     freq (  21-  22) =         91.8  [cm-1]   --> E''             R
     freq (  23-  24) =         92.0  [cm-1]   --> E'              I+R
     freq (  25-  25) =        109.4  [cm-1]   --> A'_1            R
     freq (  26-  27) =        146.6  [cm-1]   --> E'              I+R
     freq (  28-  28) =        194.9  [cm-1]   --> A'_2
     freq (  29-  30) =        210.1  [cm-1]   --> E''             R
     freq (  31-  32) =        219.8  [cm-1]   --> E'              I+R
     freq (  33-  34) =        229.2  [cm-1]   --> E'              I+R
     freq (  35-  35) =        229.5  [cm-1]   --> A'_2
     freq (  36-  37) =        248.0  [cm-1]   --> E''             R
     freq (  38-  38) =        250.5  [cm-1]   --> A''1
     freq (  39-  40) =        253.0  [cm-1]   --> E''             R
     freq (  41-  41) =        255.7  [cm-1]   --> A''1
     freq (  42-  43) =        271.2  [cm-1]   --> E'              I+R
     freq (  44-  44) =        272.8  [cm-1]   --> A'_1            R
     freq (  45-  45) =        274.2  [cm-1]   --> A''2            I
     freq (  46-  47) =        274.6  [cm-1]   --> E''             R
     freq (  48-  48) =        274.9  [cm-1]   --> A'_2
     freq (  49-  50) =        275.7  [cm-1]   --> E''             R
     freq (  51-  51) =        280.6  [cm-1]   --> A''2            I
     freq (  52-  53) =        281.8  [cm-1]   --> E''             R
     freq (  54-  55) =        285.0  [cm-1]   --> E'              I+R
     freq (  56-  57) =        285.7  [cm-1]   --> E''             R
     freq (  58-  58) =        286.5  [cm-1]   --> A'_1            R
     freq (  59-  59) =        286.7  [cm-1]   --> A''2            I
     freq (  60-  61) =        287.4  [cm-1]   --> E'              I+R
     freq (  62-  62) =        291.7  [cm-1]   --> A'_1            R
     freq (  63-  63) =        295.5  [cm-1]   --> A''1
     freq (  64-  65) =        298.0  [cm-1]   --> E'              I+R
     freq (  66-  66) =        298.7  [cm-1]   --> A''2            I
     freq (  67-  68) =        306.0  [cm-1]   --> E''             R
     freq (  69-  70) =        311.1  [cm-1]   --> E''             R
     freq (  71-  71) =        317.3  [cm-1]   --> A''2            I
     freq (  72-  72) =        351.3  [cm-1]   --> A''2            I
     freq (  73-  74) =        353.7  [cm-1]   --> E'              I+R
     freq (  75-  75) =        356.3  [cm-1]   --> A'_1            R
     freq (  76-  77) =        357.7  [cm-1]   --> E'              I+R
     freq (  78-  79) =        359.6  [cm-1]   --> E'              I+R
     freq (  80-  80) =        361.5  [cm-1]   --> A'_1            R
     freq (  81-  81) =        374.3  [cm-1]   --> A'_1            R

     INITIALIZATION:

     DYNAMICAL MATRIX:

      General routines

   This run was terminated on:  17:41:20  16Jun2022

   JOB DONE.